FPU set for double precision

Propagation version: TRIE_V1

============================[ Problem Statistics ]=============================
|                                                                             |
|  Number of variables:           512                                         |
|  Number of clauses:            4984                                         |
|  Parse time:                   0.00 s                                       |
|  Simplification time:          0.00 s             